Read MPS format model from file dat/rmp/DER_48_8192_10.mps
Reading time = 0.30 seconds
: 8240 rows, 18576 columns, 804965 nonzeros
Gurobi Optimizer version 9.0.0 build v9.0.0rc2 (linux64)
Optimize a model with 8240 rows, 18576 columns and 804965 nonzeros
Model fingerprint: 0x4aa86e72
Coefficient statistics:
  Matrix range     [8e-05, 1e+01]
  Objective range  [4e-01, 1e+03]
  Bounds range     [5e+04, 5e+04]
  RHS range        [1e+00, 1e+00]
Ordering time: 0.01s

Barrier statistics:
 AA' NZ     : 3.691e+05
 Factor NZ  : 4.591e+05 (roughly 15 MBytes of memory)
 Factor Ops : 2.687e+07 (less than 1 second per iteration)
 Threads    : 1

                  Objective                Residual
Iter       Primal          Dual         Primal    Dual     Compl     Time
   0   1.90188489e+09 -1.69536152e+08  1.90e+07 3.21e-02  1.43e+06     0s
   1   5.98225635e+07 -3.82964826e+07  5.62e+05 1.82e-12  4.42e+04     0s
   2   6.20198979e+06 -1.36308383e+07  5.79e+04 2.73e-12  5.05e+03     0s
   3   3.25847580e+05 -6.89298722e+06  2.66e+03 1.82e-12  5.45e+02     0s
   4   2.62035608e+04 -7.58729614e+05  1.61e-10 3.64e-12  4.21e+01     0s
   5   2.50196099e+04  1.78556632e+04  1.52e-10 2.73e-12  3.85e-01     0s
   6   2.48062200e+04  2.39617705e+04  1.66e-10 6.37e-12  4.53e-02     0s
   7   2.46147457e+04  2.43126238e+04  2.56e-10 1.82e-12  1.62e-02     1s
   8   2.45750279e+04  2.44174229e+04  7.58e-10 1.82e-12  8.46e-03     1s
   9   2.45386763e+04  2.44614418e+04  7.83e-10 1.82e-12  4.15e-03     1s
  10   2.45283972e+04  2.44776627e+04  7.68e-10 1.82e-12  2.72e-03     1s
  11   2.45215108e+04  2.44866653e+04  1.08e-09 9.09e-13  1.87e-03     1s
  12   2.45176281e+04  2.44919917e+04  8.75e-10 1.82e-12  1.38e-03     1s
  13   2.45143832e+04  2.44954192e+04  1.04e-09 9.09e-13  1.02e-03     1s
  14   2.45101566e+04  2.45005817e+04  3.18e-09 3.64e-12  5.14e-04     1s
  15   2.45089544e+04  2.45016187e+04  3.01e-09 1.82e-12  3.94e-04     1s
  16   2.45068882e+04  2.45025603e+04  4.03e-09 1.82e-12  2.32e-04     1s
  17   2.45054891e+04  2.45032886e+04  4.45e-09 3.64e-12  1.18e-04     1s
  18   2.45050179e+04  2.45034481e+04  3.61e-09 1.82e-12  8.43e-05     1s
  19   2.45045299e+04  2.45035976e+04  5.15e-09 1.82e-12  5.01e-05     1s
  20   2.45042500e+04  2.45036962e+04  3.47e-09 1.82e-12  2.97e-05     1s
  21   2.45040242e+04  2.45037290e+04  5.06e-09 1.82e-12  1.59e-05     1s
  22   2.45038997e+04  2.45037381e+04  2.78e-08 1.82e-12  8.68e-06     1s
  23   2.45037766e+04  2.45037439e+04  6.56e-08 1.82e-12  1.76e-06     1s
  24   2.45037548e+04  2.45037472e+04  9.89e-08 1.82e-12  4.08e-07     1s
  25   2.45037502e+04  2.45037483e+04  1.24e-07 2.73e-12  9.99e-08     1s
  26   2.45037487e+04  2.45037486e+04  7.65e-07 1.82e-12  7.04e-09     1s

Barrier solved model in 26 iterations and 1.46 seconds
Optimal objective 2.45037487e+04

Solve time: 1.461606683
Barrier iterations: 26
